; ./prepared/seahorn/./sv_comp_flat_small/ldv-linux-3.4-simple/32_1_cilled_true-unreach-call_ok_nondet_linux-3.4-32_1-drivers--input--joystick--magellan.ko-ldv_main0_sequence_infinite_withcheck_stateful.cil.out.c.flat_000.smt2
(set-logic HORN)


(declare-fun |main_1| ( Int Int Int Bool Int Int Int Int Bool ) Bool)

(assert
  (forall ( (A Int) (B Int) (C Bool) (D Int) (E Int) (F Int) (G Int) (H Bool) (v_8 Int) ) 
    (=>
      (and
        (and true (= 0 v_8))
      )
      (main_1 v_8 A B C D E F G H)
    )
  )
)
(assert
  (forall ( (A Int) (B Int) (C Int) (D Int) (E Int) (F Int) (G Int) (H Int) (I Int) (J Int) (K Int) (L Int) (M Int) (N Bool) (O Bool) (P Int) (Q Bool) (R Int) (S Int) (T Bool) (U Bool) (V Int) (W Int) (X Int) (Y Int) (Z Bool) (A1 Bool) (B1 Int) (C1 Int) (D1 Int) (E1 Int) (F1 Int) (G1 Bool) (H1 Bool) (I1 Bool) (J1 Bool) (K1 Bool) (L1 Bool) (M1 Bool) (N1 Int) (O1 Int) (v_41 Int) (v_42 Int) ) 
    (=>
      (and
        (main_1 v_41 A B U V W X Y Z)
        (and (= 0 v_41)
     (or (= O M1) (not I1) (not L1))
     (or (= O1 N1) (not I1) (not L1))
     (or (= N1 0) (not I1) (not L1))
     (or M1 (not I1) (not L1))
     (or T (not H1) (not A1))
     (or (not Q) (not J1) (not G1))
     (or (not G1) (= Q (= P 0)))
     (or (not G1) (and A1 H1))
     (or (not K1) (and I1 L1))
     (or (not I1) (= N (= C1 13)))
     (or (not I1) (= K D1))
     (or (not I1) (= J I))
     (or (not I1) (= I (+ 272 H)))
     (or (not I1) (= G F))
     (or (not I1) (= M L))
     (or (not I1) (= L (+ 272 K)))
     (or (not I1) (= H E1))
     (or (not I1) (= F (+ 272 C)))
     (or (not I1) (= E D))
     (or (not I1) (= D (+ 40 C)))
     (or (not I1) (= C F1))
     (or (not I1) (and J1 G1))
     (= K1 true)
     (= T (= S 0))
     (= 1 v_42))
      )
      (main_1 v_42 R B1 O O1 W X Y N)
    )
  )
)
(assert
  (forall ( (A Int) (B Int) (C Int) (D Bool) (E Int) (F Int) (G Bool) (H Bool) (I Int) (J Int) (K Int) (L Int) (M Bool) (N Bool) (O Int) (P Bool) (Q Bool) (R Bool) (S Bool) (T Bool) (U Bool) (V Bool) (W Bool) (X Bool) (v_24 Int) (v_25 Int) ) 
    (=>
      (and
        (main_1 v_24 A B H I J K L M)
        (and (= 0 v_24)
     (or (and R U) (and N V) (not T))
     (or G (not N) (not Q))
     (or (not G) (not N) (not V))
     (or D (not S) (not P))
     (or (not P) (= D (= C 0)))
     (or (not P) (and N Q))
     (or (not W) (and T X))
     (or (not R) (and S P))
     (= W true)
     (not T)
     (= G (= F 0))
     (= 4 v_25))
      )
      (main_1 v_25 E O H I J K L M)
    )
  )
)
(assert
  (forall ( (A Int) (B Int) (C Int) (D Bool) (E Bool) (F Bool) (G Bool) (H Int) (I Int) (J Int) (K Int) (L Int) (M Int) (N Int) (O Int) (P Int) (Q Int) (R Int) (S Int) (T Int) (U Int) (V Int) (W Int) (X Int) (Y Int) (Z Int) (A1 Int) (B1 Int) (C1 Int) (D1 Bool) (E1 Int) (F1 Bool) (G1 Bool) (H1 Bool) (I1 Int) (J1 Bool) (K1 Bool) (L1 Int) (M1 Int) (N1 Bool) (O1 Bool) (P1 Bool) (Q1 Int) (R1 Int) (S1 Int) (T1 Int) (U1 Int) (V1 Int) (W1 Int) (X1 Bool) (Y1 Int) (Z1 Int) (A2 Bool) (B2 Int) (C2 Int) (D2 Bool) (E2 Int) (F2 Int) (G2 Bool) (H2 Int) (I2 Int) (J2 Bool) (K2 Int) (L2 Int) (M2 Bool) (N2 Int) (O2 Int) (P2 Bool) (Q2 Int) (R2 Int) (S2 Bool) (T2 Int) (U2 Int) (V2 Bool) (W2 Int) (X2 Int) (Y2 Int) (Z2 Int) (A3 Int) (B3 Int) (C3 Int) (D3 Int) (E3 Bool) (F3 Int) (G3 Int) (H3 Int) (I3 Int) (J3 Int) (K3 Int) (L3 Int) (M3 Bool) (N3 Int) (O3 Int) (P3 Int) (Q3 Int) (R3 Int) (S3 Int) (T3 Int) (U3 Bool) (V3 Bool) (W3 Bool) (X3 Bool) (Y3 Int) (Z3 Int) (A4 Int) (B4 Int) (C4 Int) (D4 Bool) (E4 Int) (F4 Int) (G4 Int) (H4 Int) (I4 Int) (J4 Int) (K4 Bool) (L4 Bool) (M4 Bool) (N4 Bool) (O4 Bool) (P4 Bool) (Q4 Int) (R4 Int) (S4 Int) (T4 Int) (U4 Bool) (V4 Bool) (W4 Bool) (X4 Int) (Y4 Int) (Z4 Int) (A5 Bool) (B5 Bool) (C5 Bool) (D5 Bool) (E5 Bool) (F5 Bool) (G5 Int) (H5 Bool) (I5 Bool) (J5 Int) (K5 Int) (L5 Bool) (M5 Bool) (N5 Bool) (O5 Bool) (P5 Int) (Q5 Int) (R5 Bool) (S5 Bool) (T5 Int) (U5 Bool) (V5 Bool) (W5 Bool) (X5 Bool) (Y5 Bool) (Z5 Bool) (A6 Bool) (B6 Bool) (C6 Int) (D6 Bool) (E6 Bool) (F6 Int) (G6 Bool) (H6 Bool) (I6 Bool) (J6 Bool) (K6 Bool) (L6 Bool) (M6 Bool) (N6 Bool) (O6 Bool) (P6 Bool) (Q6 Bool) (R6 Bool) (S6 Bool) (T6 Bool) (U6 Bool) (V6 Bool) (W6 Bool) (X6 Bool) (Y6 Bool) (Z6 Bool) (A7 Bool) (B7 Bool) (C7 Bool) (D7 Bool) (E7 Bool) (F7 Bool) (G7 Int) (H7 Int) (I7 Bool) (J7 Bool) (K7 Int) (L7 Bool) (M7 Bool) (N7 Int) (O7 Bool) (P7 Bool) (Q7 Bool) (R7 Bool) (S7 Bool) (T7 Int) (U7 Int) (V7 Bool) (W7 Bool) (X7 Bool) (Y7 Bool) (Z7 Bool) (A8 Int) (B8 Int) (C8 Bool) (D8 Bool) (E8 Bool) (F8 Int) (G8 Bool) (H8 Bool) (I8 Bool) (J8 Bool) (K8 Bool) (L8 Bool) (M8 Bool) (N8 Bool) (O8 Bool) (P8 Int) (Q8 Int) (R8 Int) (S8 Int) (T8 Int) (U8 Int) (V8 Int) (W8 Int) (X8 Int) (Y8 Bool) (Z8 Bool) (A9 Bool) (v_235 Int) (v_236 Int) ) 
    (=>
      (and
        (main_1 v_235 A B P4 Q4 R4 S4 T4 U4)
        (let ((a!1 (or (not R5) (not (= (<= 107 T5) X3))))
      (a!2 (or (not H5) (not (= (<= 32 K5) K4))))
      (a!3 (or (not A5) (not (= (<= 2 Z4) M4))))
      (a!4 (or (not G6) (not (= (= U2 0) V2))))
      (a!5 (or (not G6) (not (= (= R2 0) S2))))
      (a!6 (or (not G6) (not (= (= O2 0) P2))))
      (a!7 (or (not G6) (not (= (= L2 0) M2))))
      (a!8 (or (not G6) (not (= (= I2 0) J2))))
      (a!9 (or (not G6) (not (= (= F2 0) G2))))
      (a!10 (or (not G6) (not (= (= C2 0) D2))))
      (a!11 (or (not G6) (not (= (= Z1 0) A2))))
      (a!12 (or (not G6) (not (= (= W1 0) X1)))))
  (and (= 1 v_235)
       (or (and C8 M8)
           (not G8)
           (and O8 C5)
           (and N8 C7)
           (and L8 Y6)
           (and K8 A7)
           (and J8 Q6)
           (and I8 H5)
           (and H8 L5))
       (or (and D6 R6)
           (and M6 S6)
           (and Y5 U6)
           (and W5 V6)
           (and K6 W6)
           (and N5 X6)
           (not Q6)
           (and T6 A6))
       (or (not M6) (and O6 I6) (and G6 N6) (and U5 P6))
       (or L4 (not C5) (not F5))
       (or K4 (not H5) (not M5))
       (or (not W3) (not U5) (not P6))
       (or W3 (not U5) (not X5))
       (or (not V3) (not W5) (not V6))
       (or V3 (not W5) (not Z5))
       (or (not U3) (not Y5) (not U6))
       (or U3 (not Y5) (not B6))
       (or P1 (not I6) (not L6))
       (or (not O1) (not K6) (not W6))
       (or K1 (not C7) (not F7))
       (or D1 (not I7) (not M7))
       (or (not N8) (not C7) (= V8 Q4))
       (or (not N8) (not C7) (= X8 V8))
       (or (not N8) (not K1) (not C7))
       (or (not H8) (not L5) (= P8 Q4))
       (or (not H8) (not L5) (= X8 P8))
       (or (not H1) (not E7) (not J7))
       (or (not Y6) N1 (not B7))
       (or (not T6) (not M3) (not A6))
       (or (not E6) M3 (not A6))
       (or (not D6) (not E3) (not R6))
       (or (not D6) E3 (not H6))
       (or (not N5) D4 (not X6))
       (or (not N5) (not D4) (not S5))
       (or U4 (not E5) (not O5))
       (or (not U4) (not E5) (not I5))
       (or N4 (not V4) (not D7))
       (or (not N4) (not V4) (not B5))
       (or M4 (not A5) (not Z6))
       (or (not M4) (not A5) (not D5))
       (or X3 (not R5) (not J6))
       (or (not V5) (not X3) (not R5))
       (or (not O8) (not C5) (= W8 Q4))
       (or (not O8) (not C5) (= X8 W8))
       (or (not L4) (not C5) (not O8))
       (or (not X7) (and Z7 E7) (and Q7 Y7))
       (or (not R7) (not O7) (= E1 T7))
       (or (not R7) (not O7) (= T7 N7))
       (or (not Q7) (and S7 I7) (and R7 O7))
       (or (= I1 A8) (not Q7) (not Y7))
       (or (= A8 E1) (not Q7) (not Y7))
       (or (not P7) (not L7) (not G))
       (or (not L8) (not Y6) (= X8 T8))
       (or (not L8) (not Y6) (= T8 Q4))
       (or (not L8) (not Y6) (not N1))
       (or (not K8) (not A7) (= X8 S8))
       (or (not K8) (not A7) (= S8 0))
       (or (not J8) (not Q6) (= R8 Q4))
       (or (not J8) (not Q6) (= X8 R8))
       (or (not I8) (not H5) (= Q8 Q4))
       (or (not I8) (not H5) (= X8 Q8))
       (or (not K4) (not H5) (not I8))
       (or (= W4 Y8) (not G8) (not A9))
       (or (= O4 W4) (not G8) (not A9))
       (or (= Y4 X4) (not G8) (not A9))
       (or (= X4 X8) (not G8) (not A9))
       (or (not E) (not G8) (not A9))
       (or (not D8) (not X7) F)
       (or (not C8) (and V7 E8) (and D8 X7))
       (or (not C8) (= U8 F8) (not M8))
       (or (not C8) (= X8 U8) (not M8))
       (or (not Z7) (not E7) (= I1 B8))
       (or (not Z7) (not E7) (= B8 (- 12)))
       (or (not Z7) (not E7) H1)
       (or (not W7) (not L7) G)
       (or (not S7) (not I7) (= E1 U7))
       (or (not S7) (not I7) (= U7 K7))
       (or (not S7) (not D1) (not I7))
       (or (not O6) (not P1) (not I6))
       (or (not I7) (= D1 (= K7 0)))
       (or (not I7) (= C1 B1))
       (or (not I7) (= B1 (+ 48 M)))
       (or (not I7) (= A1 Z))
       (or (not I7) (= Z (+ 40 M)))
       (or (not I7) (= Y X))
       (or (not I7) (= X (+ 648 M)))
       (or (not I7) (= W V))
       (or (not I7) (= V (+ 30 M)))
       (or (not I7) (= U T))
       (or (not I7) (= T (+ 28 M)))
       (or (not I7) (= S R))
       (or (not I7) (= R (+ 26 M)))
       (or (not I7) (= Q P))
       (or (not I7) (= P (+ 24 M)))
       (or (not I7) (= O N))
       (or (not I7) (= N (+ 8 M)))
       (or (not I7) (= M H7))
       (or (not I7) (= L H7))
       (or (not I7) (= K J))
       (or (not I7) (= J (+ 44 I)))
       (or (not I7) (= I G7))
       (or (not I7) (= H G7))
       (or (not I7) (and E7 J7))
       (or (not C7) (= K1 (and P4 J1)))
       (or (not C7) (= J1 (= Z4 0)))
       (or (not C7) (and V4 D7))
       (or (not A7) (= M1 L1))
       (or (not A7) (and Y6 B7))
       (or (not K6) (= O1 (= Q5 25)))
       (or (not K6) (and I6 L6))
       (or (not I6) (= P1 (= T5 100)))
       (or (not I6) (and R5 J6))
       (or (not A6) (= M3 (= G3 L3)))
       (or (not A6) (= K3 J3))
       (or (not A6) (= J3 (+ I3 B)))
       (or (not A6) (= H3 G3))
       (or (not A6) (= F3 (+ 2 P5)))
       (or (not A6) (and Y5 B6))
       (or (not Y5) (= U3 (= O3 T3)))
       (or (not Y5) (= S3 R3))
       (or (not Y5) (= R3 (+ Q3 B)))
       (or (not Y5) (= P3 O3))
       (or (not Y5) (= N3 (+ 3 P5)))
       (or (not Y5) (and W5 Z5))
       (or (not W5) (= V3 (= Q5 4)))
       (or (not W5) (and U5 X5))
       (or (not U5) (= W3 (= T5 107)))
       (or (not U5) (and V5 R5))
       a!1
       (or (not R5) (and N5 S5))
       (or (not L5) (= G4 (+ F4 K5)))
       (or (not L5) (= H4 G4))
       (or (not L5) (= F4 (+ 12 J5)))
       (or (not L5) (= E4 (+ 1 K5)))
       (or (not L5) (and H5 M5))
       a!2
       (or (not H5) (= J4 I4))
       (or (not H5) (= J5 G5))
       (or (not H5) (= I4 (+ 8 J5)))
       (or (not H5) (and E5 I5))
       (or (not C5) (= L4 (= Z4 2)))
       (or (not C5) (and A5 D5))
       a!3
       (or (not A5) (and V4 B5))
       (or (not O7) (and P7 L7))
       (or (not L7) (= G (= N7 0)))
       (or (not L7) (and I7 M7))
       (or (not E7) (= H1 (or F1 G1)))
       (or (not E7) (= G1 (= H7 0)))
       (or (not E7) (= F1 (= G7 0)))
       (or (not E7) (and C7 F7))
       (or (not Y6) (= N1 (= Q4 1)))
       (or (not Y6) (and A5 Z6))
       a!4
       a!5
       a!6
       a!7
       a!8
       a!9
       a!10
       a!11
       a!12
       (or (not G6) (= W2 (ite V2 1 0)))
       (or (not G6) (= T2 (ite S2 1 0)))
       (or (not G6) (= Q2 (ite P2 1 0)))
       (or (not G6) (= N2 (ite M2 1 0)))
       (or (not G6) (= K2 (ite J2 1 0)))
       (or (not G6) (= H2 (ite G2 1 0)))
       (or (not G6) (= E2 (ite D2 1 0)))
       (or (not G6) (= B2 (ite A2 1 0)))
       (or (not G6) (= Y1 (ite X1 1 0)))
       (or (not G6) (= V1 (* 2 U1)))
       (or (not G6) (= U1 Q1))
       (or (not G6) (= T1 (* 32 S1)))
       (or (not G6) (= S1 F6))
       (or (not G6) (= R1 C6))
       (or (not G6) (and D6 H6))
       (or (not D6) (= E3 (= Y2 D3)))
       (or (not D6) (= C3 B3))
       (or (not D6) (= B3 (+ A3 B)))
       (or (not D6) (= Z2 Y2))
       (or (not D6) (= X2 (+ 1 P5)))
       (or (not D6) (and E6 A6))
       (or (not N5) (= D4 (= Q5 0)))
       (or (not N5) (= Y3 G5))
       (or (not N5) (= P5 A4))
       (or (not N5) (= C4 B4))
       (or (not N5) (= B4 (+ 8 Z3)))
       (or (not N5) (= A4 (+ 12 Z3)))
       (or (not N5) (= Z3 G5))
       (or (not N5) (and E5 O5))
       (or (not E5) (and C5 F5))
       (or (not X7) (= F (= I1 0)))
       (or (not Z8) (and G8 A9))
       (or (not G8) (= E (and Y8 D)))
       (or (not G8) (= D (= C 0)))
       (or (not G8) (= Y8 (= X8 0)))
       (or (not C8) (= F8 (+ 1 Q4)))
       (or (not V7) (and W7 L7))
       (= Z8 true)
       (not (= (<= 1 Z4) N4))
       (= 1 v_236)))
      )
      (main_1 v_236 A B O4 Y4 R4 P5 T4 U4)
    )
  )
)
(assert
  (forall ( (A Int) (B Int) (C Bool) (D Bool) (E Bool) (F Int) (G Int) (H Int) (I Int) (J Int) (K Bool) (L Bool) (M Bool) (N Bool) (O Bool) (P Int) (Q Int) (R Int) (S Int) (T Bool) (U Bool) (V Int) (W Bool) (X Bool) (Y Bool) (Z Bool) (A1 Bool) (B1 Bool) (C1 Int) (D1 Bool) (E1 Bool) (F1 Int) (G1 Int) (H1 Bool) (I1 Bool) (J1 Int) (K1 Bool) (L1 Bool) (M1 Bool) (N1 Bool) (O1 Bool) (P1 Bool) (Q1 Bool) (R1 Bool) (S1 Int) (T1 Int) (v_46 Int) (v_47 Int) ) 
    (=>
      (and
        (main_1 v_46 A B O P Q R S T)
        (let ((a!1 (or (not H1) (not (= (<= 107 J1) E))))
      (a!2 (or (not W) (not (= (<= 2 V) M)))))
  (and (= 1 v_46)
       (or E (not L1) (not H1))
       (or (not P1) (not M1) C)
       (or (= T1 S1) (not R1) (not O1))
       (or (= S1 24) (not R1) (not O1))
       (or D (not N1) (not K1))
       (or T (not E1) (not A1))
       (or (not D1) (not K) (not I1))
       (or (not M) (not Z) (not W))
       (or (not X) (not N) (not U))
       (or L (not B1) (not Y))
       (or (not A1) (and Y B1))
       (or (not Q1) (and O1 R1))
       (or (not M1) (= C (= G1 25)))
       (or (not M1) (and K1 N1))
       a!1
       (or (not H1) (and D1 I1))
       (or (not O1) (and P1 M1))
       (or (not K1) (= D (= J1 100)))
       (or (not K1) (and H1 L1))
       (or (not D1) (= K (= G1 0)))
       (or (not D1) (= F1 H))
       (or (not D1) (= J I))
       (or (not D1) (= I (+ 8 G)))
       (or (not D1) (= H (+ 12 G)))
       (or (not D1) (= G C1))
       (or (not D1) (= F C1))
       (or (not D1) (and E1 A1))
       (or (not Y) (= L (= V 2)))
       (or (not Y) (and W Z))
       a!2
       (or (not W) (and U X))
       (= Q1 true)
       (not (= (<= 1 V) N))
       (= 2 v_47)))
      )
      (main_1 v_47 A B O P Q F1 T1 T)
    )
  )
)
(assert
  (forall ( (A Int) (B Int) (C Int) (D Bool) (E Bool) (F Bool) (G Bool) (H Int) (I Int) (J Int) (K Int) (L Int) (M Int) (N Int) (O Int) (P Int) (Q Int) (R Int) (S Int) (T Int) (U Int) (V Int) (W Int) (X Int) (Y Int) (Z Int) (A1 Int) (B1 Int) (C1 Int) (D1 Bool) (E1 Int) (F1 Bool) (G1 Bool) (H1 Bool) (I1 Int) (J1 Bool) (K1 Bool) (L1 Int) (M1 Int) (N1 Bool) (O1 Bool) (P1 Bool) (Q1 Int) (R1 Int) (S1 Int) (T1 Int) (U1 Int) (V1 Int) (W1 Int) (X1 Bool) (Y1 Int) (Z1 Int) (A2 Bool) (B2 Int) (C2 Int) (D2 Bool) (E2 Int) (F2 Int) (G2 Bool) (H2 Int) (I2 Int) (J2 Bool) (K2 Int) (L2 Int) (M2 Bool) (N2 Int) (O2 Int) (P2 Bool) (Q2 Int) (R2 Int) (S2 Bool) (T2 Int) (U2 Int) (V2 Bool) (W2 Int) (X2 Int) (Y2 Int) (Z2 Int) (A3 Int) (B3 Int) (C3 Int) (D3 Int) (E3 Bool) (F3 Int) (G3 Int) (H3 Int) (I3 Int) (J3 Int) (K3 Int) (L3 Int) (M3 Bool) (N3 Int) (O3 Int) (P3 Int) (Q3 Int) (R3 Int) (S3 Int) (T3 Int) (U3 Bool) (V3 Bool) (W3 Bool) (X3 Bool) (Y3 Int) (Z3 Int) (A4 Int) (B4 Int) (C4 Int) (D4 Bool) (E4 Int) (F4 Int) (G4 Int) (H4 Int) (I4 Int) (J4 Int) (K4 Bool) (L4 Bool) (M4 Bool) (N4 Bool) (O4 Bool) (P4 Int) (Q4 Int) (R4 Int) (S4 Int) (T4 Bool) (U4 Bool) (V4 Bool) (W4 Bool) (X4 Bool) (Y4 Bool) (Z4 Bool) (A5 Int) (B5 Bool) (C5 Bool) (D5 Bool) (E5 Bool) (F5 Bool) (G5 Bool) (H5 Int) (I5 Bool) (J5 Bool) (K5 Int) (L5 Int) (M5 Bool) (N5 Bool) (O5 Bool) (P5 Bool) (Q5 Int) (R5 Int) (S5 Bool) (T5 Bool) (U5 Int) (V5 Bool) (W5 Bool) (X5 Bool) (Y5 Bool) (Z5 Bool) (A6 Bool) (B6 Bool) (C6 Bool) (D6 Int) (E6 Bool) (F6 Bool) (G6 Int) (H6 Bool) (I6 Bool) (J6 Bool) (K6 Bool) (L6 Bool) (M6 Bool) (N6 Bool) (O6 Bool) (P6 Bool) (Q6 Bool) (R6 Bool) (S6 Bool) (T6 Bool) (U6 Bool) (V6 Bool) (W6 Bool) (X6 Bool) (Y6 Bool) (Z6 Bool) (A7 Bool) (B7 Bool) (C7 Bool) (D7 Bool) (E7 Bool) (F7 Bool) (G7 Bool) (H7 Int) (I7 Int) (J7 Bool) (K7 Bool) (L7 Int) (M7 Bool) (N7 Bool) (O7 Int) (P7 Bool) (Q7 Bool) (R7 Bool) (S7 Bool) (T7 Bool) (U7 Int) (V7 Int) (W7 Bool) (X7 Bool) (Y7 Bool) (Z7 Bool) (A8 Bool) (B8 Int) (C8 Int) (D8 Bool) (E8 Bool) (F8 Bool) (G8 Int) (H8 Bool) (I8 Bool) (J8 Bool) (K8 Bool) (L8 Bool) (M8 Bool) (N8 Bool) (O8 Bool) (P8 Bool) (Q8 Int) (R8 Int) (S8 Int) (T8 Int) (U8 Int) (V8 Int) (W8 Int) (X8 Int) (Y8 Int) (Z8 Bool) (A9 Bool) (B9 Bool) (C9 Bool) (D9 Bool) (v_238 Int) (v_239 Int) ) 
    (=>
      (and
        (main_1 v_238 A B O4 P4 Q4 R4 S4 T4)
        (let ((a!1 (or (not S5) (not (= (<= 107 U5) X3))))
      (a!2 (or (not I5) (not (= (<= 32 L5) K4))))
      (a!3 (or (not H6) (not (= (= U2 0) V2))))
      (a!4 (or (not H6) (not (= (= R2 0) S2))))
      (a!5 (or (not H6) (not (= (= O2 0) P2))))
      (a!6 (or (not H6) (not (= (= L2 0) M2))))
      (a!7 (or (not H6) (not (= (= I2 0) J2))))
      (a!8 (or (not H6) (not (= (= F2 0) G2))))
      (a!9 (or (not H6) (not (= (= C2 0) D2))))
      (a!10 (or (not H6) (not (= (= Z1 0) A2))))
      (a!11 (or (not H6) (not (= (= W1 0) X1))))
      (a!12 (or (not B5) (not (= (<= 2 A5) M4)))))
  (and (= 1 v_238)
       (or (not H8)
           (and R6 K8)
           (and P8 D5)
           (and O8 D7)
           (and N8 D8)
           (and M8 Z6)
           (and L8 B7)
           (and J8 I5)
           (and I8 M5))
       (or (not R6)
           (and E6 S6)
           (and N6 T6)
           (and B6 U6)
           (and Z5 V6)
           (and L6 X6)
           (and O5 Y6)
           (and W6 X5))
       (or (and H6 O6) (and J6 P6) (and V5 Q6) (not N6))
       (or (not O1) (not L6) (not X6))
       (or (not E3) (not S6) (not E6))
       (or M3 (not B6) (not F6))
       (or (not M3) (not B6) (not U6))
       (or (not U3) (not Z5) (not V6))
       (or U3 (not Z5) (not C6))
       (or V3 (not X5) (not A6))
       (or (not W3) (not V5) (not Q6))
       (or (not D4) (not O5) (not T5))
       (or D4 (not O5) (not Y6))
       (or K4 (not I5) (not N5))
       (or (not T4) (not F5) (not J5))
       (or T4 (not F5) (not P5))
       (or L4 (not D5) (not G5))
       (or (not N4) (not U4) (not C5))
       (or N4 (not E7) (not U4))
       (or (not X3) (not S5) (not W5))
       (or X3 (not K6) (not S5))
       (or N1 (not C7) (not Z6))
       (or K1 (not D7) (not G7))
       (or (and Y7 E8) (not D8) (and F8 W7))
       (or (not R7) (and T7 J7) (and S7 P7))
       (or (not G) (not M7) (not Q7))
       (or (not K7) (not F7) (not H1))
       (or D1 (not J7) (not N7))
       (or (not W6) (not X5) (not V3))
       (or (not J6) P1 (not M6))
       (or (not P6) (not J6) (not P1))
       (or (not I6) (not E6) E3)
       (or (not Y5) (not V5) W3)
       (or M4 (not A7) (not B5))
       (or (not M4) (not E5) (not B5))
       (or (and Y7 B9) (not A9) (and C9 H8))
       (or (not A8) (not F7) (= I1 C8))
       (or (not A8) (not F7) (= C8 (- 12)))
       (or (not A8) (not F7) H1)
       (or (not T7) (not J7) (= E1 V7))
       (or (not T7) (not J7) (= V7 L7))
       (or (not T7) (not J7) (not D1))
       (or (not S7) (not P7) (= E1 U7))
       (or (not S7) (not P7) (= U7 O7))
       (or (not C9) (not H8) E)
       (or (not P8) (not D5) (= Y8 X8))
       (or (not P8) (not D5) (= X8 P4))
       (or (not P8) (not D5) (not L4))
       (or (not O8) (not D7) (= Y8 W8))
       (or (not O8) (not D7) (= W8 P4))
       (or (not K1) (not D7) (not O8))
       (or (not N8) (not D8) (= Y8 V8))
       (or (not N8) (not D8) (= V8 G8))
       (or (not M8) (not Z6) (= U8 P4))
       (or (not M8) (not Z6) (= Y8 U8))
       (or (not M8) (not N1) (not Z6))
       (or (not L8) (not B7) (= T8 0))
       (or (not L8) (not B7) (= Y8 T8))
       (or (not J8) (not I5) (= Y8 R8))
       (or (not J8) (not I5) (= R8 P4))
       (or (not J8) (not I5) (not K4))
       (or (not I8) (not M5) (= Y8 Q8))
       (or (not I8) (not M5) (= Q8 P4))
       (or (not Z7) (not R7) (= I1 B8))
       (or (not Z7) (not R7) (= B8 E1))
       (or (not Y7) (and A8 F7) (and Z7 R7))
       (or F (not E8) (not Y7))
       (or (not F) (not Y7) (not B9))
       (or G (not X7) (not M7))
       (or (not R6) (= S8 P4) (not K8))
       (or (not R6) (= Y8 S8) (not K8))
       a!1
       (or (not S5) (and O5 T5))
       (or (not M5) (= H4 G4))
       (or (not M5) (= G4 (+ F4 L5)))
       (or (not M5) (= F4 (+ 12 K5)))
       (or (not M5) (= E4 (+ 1 L5)))
       (or (not M5) (and I5 N5))
       (or (not W4) (and V4 X4))
       (or (not W7) (and X7 M7))
       (or (not P7) (and Q7 M7))
       (or (not M7) (= G (= O7 0)))
       (or (not M7) (and J7 N7))
       (or (not F7) (= H1 (or G1 F1)))
       (or (not F7) (= F1 (= H7 0)))
       (or (not F7) (= G1 (= I7 0)))
       (or (not F7) (and D7 G7))
       (or (not D7) (= K1 (and J1 O4)))
       (or (not D7) (= J1 (= A5 0)))
       (or (not D7) (and E7 U4))
       (or (not Z6) (= N1 (= P4 1)))
       (or (not Z6) (and B5 A7))
       (or (not L6) (= O1 (= R5 25)))
       (or (not L6) (and J6 M6))
       (or (not E6) (= E3 (= Y2 D3)))
       (or (not E6) (= C3 B3))
       (or (not E6) (= B3 (+ A3 B)))
       (or (not E6) (= Z2 Y2))
       (or (not E6) (= X2 (+ 1 Q5)))
       (or (not E6) (and B6 F6))
       (or (not B6) (= M3 (= G3 L3)))
       (or (not B6) (= H3 G3))
       (or (not B6) (= K3 J3))
       (or (not B6) (= J3 (+ I3 B)))
       (or (not B6) (= F3 (+ 2 Q5)))
       (or (not B6) (and Z5 C6))
       (or (not Z5) (= U3 (= O3 T3)))
       (or (not Z5) (= P3 O3))
       (or (not Z5) (= S3 R3))
       (or (not Z5) (= R3 (+ Q3 B)))
       (or (not Z5) (= N3 (+ 3 Q5)))
       (or (not Z5) (and X5 A6))
       (or (not X5) (= V3 (= R5 4)))
       (or (not X5) (and Y5 V5))
       (or (not V5) (= W3 (= U5 107)))
       (or (not V5) (and S5 W5))
       (or (not O5) (= D4 (= R5 0)))
       (or (not O5) (= Q5 A4))
       (or (not O5) (= A4 (+ 12 Z3)))
       (or (not O5) (= Y3 H5))
       (or (not O5) (= B4 (+ 8 Z3)))
       (or (not O5) (= C4 B4))
       (or (not O5) (= Z3 H5))
       (or (not O5) (and F5 P5))
       a!2
       (or (not I5) (= J4 I4))
       (or (not I5) (= K5 H5))
       (or (not I5) (= I4 (+ 8 K5)))
       (or (not I5) (and F5 J5))
       (or (not F5) (and D5 G5))
       (or (not D5) (= L4 (= A5 2)))
       (or (not D5) (and B5 E5))
       (or (not H8) (= E (and Z8 D)))
       (or (not H8) (= D (= C 0)))
       (or (not H8) (= Z8 (= Y8 0)))
       (or (not D8) (= G8 (+ 1 P4)))
       (or (not J7) (= D1 (= L7 0)))
       (or (not J7) (= J (+ 44 I)))
       (or (not J7) (= I H7))
       (or (not J7) (= H H7))
       (or (not J7) (= C1 B1))
       (or (not J7) (= B1 (+ 48 M)))
       (or (not J7) (= A1 Z))
       (or (not J7) (= Z (+ 40 M)))
       (or (not J7) (= Y X))
       (or (not J7) (= X (+ 648 M)))
       (or (not J7) (= W V))
       (or (not J7) (= V (+ 30 M)))
       (or (not J7) (= U T))
       (or (not J7) (= T (+ 28 M)))
       (or (not J7) (= S R))
       (or (not J7) (= R (+ 26 M)))
       (or (not J7) (= Q P))
       (or (not J7) (= P (+ 24 M)))
       (or (not J7) (= O N))
       (or (not J7) (= N (+ 8 M)))
       (or (not J7) (= M I7))
       (or (not J7) (= L I7))
       (or (not J7) (= K J))
       (or (not J7) (and K7 F7))
       (or (not B7) (= M1 L1))
       (or (not B7) (and Z6 C7))
       (or (not J6) (= P1 (= U5 100)))
       (or (not J6) (and K6 S5))
       a!3
       a!4
       a!5
       a!6
       a!7
       a!8
       a!9
       a!10
       a!11
       (or (not H6) (= S1 G6))
       (or (not H6) (= R1 D6))
       (or (not H6) (= W2 (ite V2 1 0)))
       (or (not H6) (= T2 (ite S2 1 0)))
       (or (not H6) (= Q2 (ite P2 1 0)))
       (or (not H6) (= N2 (ite M2 1 0)))
       (or (not H6) (= K2 (ite J2 1 0)))
       (or (not H6) (= H2 (ite G2 1 0)))
       (or (not H6) (= E2 (ite D2 1 0)))
       (or (not H6) (= B2 (ite A2 1 0)))
       (or (not H6) (= Y1 (ite X1 1 0)))
       (or (not H6) (= V1 (* 2 U1)))
       (or (not H6) (= U1 Q1))
       (or (not H6) (= T1 (* 32 S1)))
       (or (not H6) (and I6 E6))
       a!12
       (or (not B5) (and U4 C5))
       (or (not Y4) (and Z4 W4))
       (or (not V4) (and D9 A9))
       (or (not Y7) (= F (= I1 0)))
       (not W4)
       (= Y4 true)
       (not (= (<= 1 A5) N4))
       (= 4 v_239)))
      )
      (main_1 v_239 A B O4 P4 Q4 Q5 S4 T4)
    )
  )
)
(assert
  (forall ( (A Int) (B Int) (C Int) (D Bool) (E Bool) (F Int) (G Int) (H Int) (I Int) (J Int) (K Int) (L Int) (M Bool) (N Bool) (O Bool) (P Int) (Q Int) (R Int) (S Int) (T Bool) (U Bool) (V Bool) (W Int) (X Int) (Y Bool) (Z Bool) (A1 Bool) (B1 Int) (C1 Int) (D1 Bool) (E1 Bool) (F1 Bool) (G1 Bool) (H1 Bool) (I1 Bool) (v_35 Int) (v_36 Int) ) 
    (=>
      (and
        (main_1 v_35 A B O P Q R S T)
        (and (= 2 v_35)
     (= K J)
     (= H G)
     (= J (+ I B))
     (= F (+ R S))
     (or (not M) (not E1) (not G1))
     (or (= V D1) (not I1) (not Z))
     (or (= N V) (not I1) (not Z))
     (or (= X W) (not I1) (not Z))
     (or (= W C1) (not I1) (not Z))
     (or (= C1 B1) (not Y) (not A1))
     (or (= B1 P) (not Y) (not A1))
     (or (not E) (not I1) (not Z))
     (or (not F1) (and E1 G1))
     (or (not Z) (= D1 (= C1 0)))
     (or (not Z) (= E (and D D1)))
     (or (not Z) (= D (= C 0)))
     (or (not Z) (and Y A1))
     (or (not Y) (and H1 F1))
     (or (not U) (and Z I1))
     (= U true)
     (= M (= G L))
     (= 1 v_36))
      )
      (main_1 v_36 A B N X Q R S T)
    )
  )
)
(assert
  (forall ( (A Int) (B Int) (C Bool) (D Int) (E Int) (F Int) (G Int) (H Int) (I Int) (J Int) (K Bool) (L Bool) (M Int) (N Int) (O Int) (P Int) (Q Bool) (R Bool) (S Int) (T Int) (U Bool) (V Bool) (W Int) (X Bool) (Y Bool) (v_25 Int) (v_26 Int) ) 
    (=>
      (and
        (main_1 v_25 A B L M N O P Q)
        (and (= 2 v_25)
     (= I H)
     (= H (+ G B))
     (= D (+ O P))
     (= F E)
     (or (= T S) (not U) (not Y))
     (or (= S W) (not U) (not Y))
     (or (not C) (not U) (not Y))
     (or K (not R) (not V))
     (or (not X) (and U Y))
     (or (not U) (= C (= W 0)))
     (or (not U) (= W (+ (- 1) P)))
     (or (not U) (and R V))
     (= X true)
     (= K (= E J))
     (= 2 v_26))
      )
      (main_1 v_26 A B L M N O T Q)
    )
  )
)
(assert
  (forall ( (A Int) (B Int) (C Int) (D Bool) (E Int) (F Int) (G Int) (H Int) (I Int) (J Int) (K Int) (L Bool) (M Bool) (N Int) (O Int) (P Int) (Q Int) (R Bool) (S Bool) (T Bool) (U Bool) (V Int) (W Bool) (X Bool) (Y Bool) (Z Bool) (A1 Int) (v_27 Int) (v_28 Int) ) 
    (=>
      (and
        (main_1 v_27 A B M N O P Q R)
        (and (= 2 v_27)
     (= I (+ H B))
     (= J I)
     (= G F)
     (= E (+ P Q))
     (or (= C A1) (not W) (not Z))
     (or (= A1 0) (not W) (not Z))
     (or L (not U) (not S))
     (or D (not T) (not X))
     (or (not T) (= D (= V 0)))
     (or (not T) (= V (+ (- 1) Q)))
     (or (not T) (and U S))
     (or (not Y) (and W Z))
     (or (not W) (and T X))
     (= Y true)
     (= L (= F K))
     (= 3 v_28))
      )
      (main_1 v_28 A B M N C P Q R)
    )
  )
)
(assert
  (forall ( (A Int) (B Int) (C Int) (D Bool) (E Bool) (F Int) (G Int) (H Int) (I Int) (J Int) (K Int) (L Int) (M Bool) (N Bool) (O Int) (P Int) (Q Int) (R Int) (S Bool) (T Bool) (U Bool) (V Bool) (W Bool) (X Bool) (Y Bool) (Z Bool) (A1 Bool) (B1 Int) (C1 Int) (D1 Bool) (E1 Bool) (F1 Bool) (G1 Bool) (H1 Bool) (I1 Bool) (J1 Bool) (K1 Bool) (v_37 Int) (v_38 Int) ) 
    (=>
      (and
        (main_1 v_37 A B N O P Q R S)
        (and (= 2 v_37)
     (= J (+ I B))
     (= F (+ Q R))
     (= K J)
     (= H G)
     (or (not A1) (not Y) (= B1 O))
     (or (not A1) (not Y) (= C1 B1))
     (or (not M) (not E1) (not J1))
     (or E (not G1) (not Z))
     (or (not Y) (and K1 I1))
     (or (not I1) (and E1 J1))
     (or (not F1) (and Z G1))
     (or (not Z) (= D (= C 0)))
     (or (not Z) (= D1 (= C1 0)))
     (or (not Z) (= E (and D1 D)))
     (or (not Z) (and A1 Y))
     (or (not W) (and U X))
     (or (not U) (and T V))
     (or (not T) (and F1 H1))
     (= W true)
     (not U)
     (= M (= G L))
     (= 4 v_38))
      )
      (main_1 v_38 A B N O P Q R S)
    )
  )
)
(assert
  (forall ( (A Int) (B Int) (C Int) (D Bool) (E Bool) (F Int) (G Int) (H Int) (I Int) (J Int) (K Int) (L Int) (M Int) (N Int) (O Int) (P Int) (Q Int) (R Int) (S Int) (T Int) (U Int) (V Int) (W Int) (X Int) (Y Int) (Z Int) (A1 Int) (B1 Int) (C1 Int) (D1 Int) (E1 Bool) (F1 Bool) (G1 Bool) (H1 Int) (I1 Int) (J1 Int) (K1 Int) (L1 Bool) (M1 Bool) (N1 Bool) (O1 Int) (P1 Int) (Q1 Bool) (R1 Bool) (S1 Bool) (T1 Bool) (U1 Bool) (V1 Int) (W1 Int) (X1 Bool) (Y1 Bool) (Z1 Bool) (A2 Int) (B2 Bool) (C2 Bool) (D2 Bool) (v_56 Int) (v_57 Int) ) 
    (=>
      (and
        (main_1 v_56 A B G1 H1 I1 J1 K1 L1)
        (and (= 3 v_56)
     (= Y (+ J1 X))
     (= X (+ 1 I))
     (= V U)
     (= A2 (+ 1 I1))
     (= D1 (+ (- 32768) C1))
     (= B1 (* 4096 A1))
     (= A1 Z)
     (= W (* 256 V))
     (= T (+ J1 S))
     (= S (+ 2 I))
     (= R (* 16 Q))
     (= Q P)
     (= O (+ J1 N))
     (= N (+ 3 I))
     (= M L)
     (= K (+ J1 J))
     (= J (+ 4 I))
     (= I (* 4 I1))
     (= H G)
     (= G (+ F A))
     (= F (* 4 I1))
     (or (not E1) (not Z1) (not C2))
     (or (not U1) (not R1) (= W1 V1))
     (or (not U1) (not R1) (= V1 H1))
     (or (= N1 X1) (not T1) (not Y1))
     (or (= F1 N1) (not T1) (not Y1))
     (or (= O1 W1) (not T1) (not Y1))
     (or (= P1 O1) (not T1) (not Y1))
     (or (not E) (not T1) (not Y1))
     (or (not Q1) (and D2 B2))
     (or (not R1) (and S1 Q1))
     (or (not B2) (and Z1 C2))
     (or (not T1) (= E (and X1 D)))
     (or (not T1) (= D (= C 0)))
     (or (not T1) (= X1 (= W1 0)))
     (or (not T1) (and U1 R1))
     (or (not M1) (and T1 Y1))
     (= M1 true)
     (not (= (<= 6 A2) E1))
     (= 1 v_57))
      )
      (main_1 v_57 A B F1 P1 I1 J1 K1 L1)
    )
  )
)
(assert
  (forall ( (A Int) (B Int) (C Int) (D Int) (E Int) (F Int) (G Int) (H Int) (I Int) (J Int) (K Int) (L Int) (M Int) (N Int) (O Int) (P Int) (Q Int) (R Int) (S Int) (T Int) (U Int) (V Int) (W Int) (X Int) (Y Int) (Z Int) (A1 Int) (B1 Bool) (C1 Int) (D1 Bool) (E1 Int) (F1 Int) (G1 Int) (H1 Int) (I1 Bool) (J1 Bool) (K1 Int) (L1 Int) (M1 Bool) (N1 Bool) (v_40 Int) (v_41 Int) ) 
    (=>
      (and
        (main_1 v_40 A B D1 E1 F1 G1 H1 I1)
        (and (= 3 v_40)
     (= P (+ 2 F))
     (= Y (* 4096 X))
     (= X W)
     (= V (+ G1 U))
     (= T (* 256 S))
     (= S R)
     (= Q (+ G1 P))
     (= J I)
     (= H (+ G1 G))
     (= F (* 4 F1))
     (= L1 (+ 1 F1))
     (= A1 (+ (- 32768) Z))
     (= U (+ 1 F))
     (= O (* 16 N))
     (= N M)
     (= L (+ G1 K))
     (= K (+ 3 F))
     (= G (+ 4 F))
     (= E D)
     (= D (+ C A))
     (= C (* 4 F1))
     (or (= C1 K1) (not J1) (not N1))
     (or (= K1 L1) (not J1) (not N1))
     (or B1 (not J1) (not N1))
     (or (not M1) (and J1 N1))
     (= M1 true)
     (not (= (<= 6 L1) B1))
     (= 3 v_41))
      )
      (main_1 v_41 A B D1 E1 C1 G1 H1 I1)
    )
  )
)
(assert
  (forall ( (A Int) (B Int) (C Int) (D Bool) (E Bool) (F Int) (G Int) (H Int) (I Int) (J Int) (K Int) (L Int) (M Int) (N Int) (O Int) (P Int) (Q Int) (R Int) (S Int) (T Int) (U Int) (V Int) (W Int) (X Int) (Y Int) (Z Int) (A1 Int) (B1 Int) (C1 Int) (D1 Int) (E1 Bool) (F1 Bool) (G1 Int) (H1 Int) (I1 Int) (J1 Int) (K1 Bool) (L1 Bool) (M1 Bool) (N1 Bool) (O1 Bool) (P1 Bool) (Q1 Bool) (R1 Bool) (S1 Bool) (T1 Bool) (U1 Bool) (V1 Int) (W1 Int) (X1 Bool) (Y1 Bool) (Z1 Bool) (A2 Bool) (B2 Bool) (C2 Int) (D2 Bool) (E2 Bool) (F2 Bool) (v_58 Int) (v_59 Int) ) 
    (=>
      (and
        (main_1 v_58 A B F1 G1 H1 I1 J1 K1)
        (and (= 3 v_58)
     (= B1 (* 4096 A1))
     (= A1 Z)
     (= X (+ 1 I))
     (= C2 (+ 1 H1))
     (= D1 (+ (- 32768) C1))
     (= Y (+ I1 X))
     (= W (* 256 V))
     (= V U)
     (= T (+ I1 S))
     (= S (+ 2 I))
     (= R (* 16 Q))
     (= Q P)
     (= O (+ I1 N))
     (= N (+ 3 I))
     (= M L)
     (= K (+ I1 J))
     (= J (+ 4 I))
     (= I (* 4 H1))
     (= H G)
     (= G (+ F A))
     (= F (* 4 H1))
     (or (not Z1) (not T1) E)
     (or (= W1 V1) (not R1) (not U1))
     (or (= V1 G1) (not R1) (not U1))
     (or (not E1) (not B2) (not E2))
     (or (not M1) (and L1 N1))
     (or (not Y1) (and Z1 T1))
     (or (not T1) (= E (and X1 D)))
     (or (not T1) (= D (= C 0)))
     (or (not T1) (= X1 (= W1 0)))
     (or (not T1) (and R1 U1))
     (or (not D2) (and B2 E2))
     (or (not R1) (and Q1 S1))
     (or (not Q1) (and F2 D2))
     (or (not O1) (and P1 M1))
     (or (not L1) (and A2 Y1))
     (not M1)
     (= O1 true)
     (not (= (<= 6 C2) E1))
     (= 4 v_59))
      )
      (main_1 v_59 A B F1 G1 H1 I1 J1 K1)
    )
  )
)
(assert
  (forall ( (A Int) (B Int) (C Bool) (D Int) (E Int) (F Int) (G Int) (H Bool) (v_8 Int) ) 
    (=>
      (and
        (main_1 v_8 A B C D E F G H)
        (= 4 v_8)
      )
      false
    )
  )
)

(check-sat)
(exit)
